100
75 75
1 52 742
2 51 607
3 51 925
4 50 836
5 50 464
6 49 974
7 49 957
8 48 779
9 48 821
10 47 404
11 47 962
12 46 90
13 46 211
14 46 215
15 45 125
16 45 360
17 44 409
18 43 867
19 43 86
20 43 371
21 43 740
22 43 861
23 41 203
24 41 537
25 40 674
26 40 82
27 40 214
28 40 9
29 38 781
30 38 573
31 38 748
32 38 187
33 37 965
34 37 631
35 37 563
36 36 698
37 35 967
38 34 462
39 31 943
40 31 416
41 31 721
42 30 54
43 30 893
44 30 525
45 30 216
46 29 285
47 29 321
48 29 302
49 28 194
50 28 728
51 28 625
52 27 572
53 27 33
54 26 133
55 25 227
56 25 40
57 25 943
58 25 767
59 24 282
60 24 610
61 23 921
62 22 674
63 22 104
64 21 62
65 20 389
66 19 340
67 19 914
68 18 392
69 18 26
70 18 514
71 18 464
72 17 528
73 17 933
74 17 426
75 17 12
76 16 373
77 16 988
78 16 188
79 15 606
80 15 350
81 14 520
82 13 143
83 12 298
84 11 197
85 11 591
86 11 357
87 10 387
88 10 847
89 10 637
90 10 340
91 10 518
92 9 976
93 8 726
94 8 381
95 8 134
96 8 784
97 7 66
98 7 50
99 7 482
100 7 187
